\* row_knapsack_problem *\
Minimize
knapsack: 138 row_23 + 146 row_30 + 183 row_44 + 165 row_49 + 48 row_55
 + 39 row_57 + 174 row_60 + 162 row_62 + 42 row_63 + 167 row_9
Subject To
sensitivity: 328 row_23 + 320 row_30 + 283 row_44 + 301 row_49 + 418 row_55
 + 427 row_57 + 292 row_60 + 304 row_62 + 424 row_63 + 299 row_9 >= 1031.1
Bounds
 row_23 <= 1
 row_30 <= 1
 row_44 <= 1
 row_49 <= 1
 row_55 <= 1
 row_57 <= 1
 row_60 <= 1
 row_62 <= 1
 row_63 <= 1
 row_9 <= 1
End
